(set-option :print-success false)
(set-logic QF_UF)
(declare-sort x37 0)
(declare-sort x47 0)
(declare-fun x103 (x47 x47) x47)
(declare-fun x158 () x47)
(declare-fun x3 () x47)
(declare-fun x74 () x47)
(declare-fun x125 () x47)
(declare-fun x116 (x47 x47) x47)
(declare-fun x132 () x47)
(assert (and (and (and (and (or (= x125 (x116 x132 (x116 x125 x132))) (or (= (x116 x158 (x116 x125 x158)) x125) (or (= (x116 x74 (x116 x125 x74)) x125) (or (= x125 (x116 x125 (x116 x125 x125))) (= x125 (x116 x3 (x116 x125 x3))))))) (or (or (or (or (= x3 (x116 x3 (x116 x3 x3))) (= (x116 x125 (x116 x3 x125)) x3)) (= (x116 x74 (x116 x3 x74)) x3)) (= x3 (x116 x158 (x116 x3 x158)))) (= x3 (x116 x132 (x116 x3 x132))))) (or (or (or (= (x116 x74 (x116 x74 x74)) x74) (or (= x74 (x116 x3 (x116 x74 x3))) (= x74 (x116 x125 (x116 x74 x125))))) (= x74 (x116 x158 (x116 x74 x158)))) (= x74 (x116 x132 (x116 x74 x132))))) (or (= (x116 x132 (x116 x158 x132)) x158) (or (= x158 (x116 x158 (x116 x158 x158))) (or (= (x116 x74 (x116 x158 x74)) x158) (or (= x158 (x116 x3 (x116 x158 x3))) (= (x116 x125 (x116 x158 x125)) x158)))))) (or (= (x116 x132 (x116 x132 x132)) x132) (or (= x132 (x116 x158 (x116 x132 x158))) (or (or (= x132 (x116 x3 (x116 x132 x3))) (= x132 (x116 x125 (x116 x132 x125)))) (= x132 (x116 x74 (x116 x132 x74))))))))
(assert (let ((x21 (x116 x3 x74)) (x118 (x116 x132 x3)) (x137 (x116 x125 x158)) (x98 (x116 x158 x158)) (x135 (x116 x132 x125)) (x131 (x116 x74 x158)) (x72 (x116 x132 x74)) (x7 (x116 x3 x132)) (x65 (x116 x74 x125)) (x12 (x116 x125 x125)) (x46 (x116 x125 x132)) (x86 (x116 x158 x132)) (x130 (x116 x74 x132)) (x128 (x116 x3 x158)) (x147 (x116 x125 x74)) (x107 (x116 x158 x3)) (x73 (x116 x3 x125)) (x133 (x116 x158 x125)) (x20 (x116 x132 x132)) (x110 (x116 x3 x3)) (x61 (x116 x158 x74)) (x22 (x116 x132 x158)) (x45 (x116 x125 x3)) (x84 (x116 x74 x74)) (x5 (x116 x74 x3))) (let ((x108 (= x130 x132)) (x114 (= x61 x158)) (x66 (= x5 x74)) (x124 (= x84 x74)) (x19 (= x3 x7)) (x91 (= x22 x74)) (x6 (= x158 x147)) (x96 (= x45 x3)) (x95 (= x158 x131)) (x70 (= x125 x135)) (x148 (= x12 x132)) (x51 (= x74 x61)) (x127 (= x133 x125)) (x99 (= x130 x158)) (x43 (= x128 x3)) (x150 (= x46 x74)) (x82 (= x45 x132)) (x58 (= x3 x107)) (x81 (= x98 x132)) (x78 (= x7 x132)) (x102 (= x125 x118)) (x111 (= x5 x132)) (x40 (= x74 x98)) (x113 (= x22 x3)) (x29 (= x147 x125)) (x122 (= x158 x72)) (x94 (= x132 x135)) (x48 (= x125 x107)) (x134 (= x74 x45)) (x34 (= x147 x3)) (x87 (= x12 x158)) (x60 (= x158 x65)) (x106 (= x73 x125)) (x27 (= x147 x74)) (x4 (= x125 x46)) (x56 (= x118 x3)) (x41 (= x3 x21)) (x67 (= x110 x3)) (x141 (= x125 x131)) (x11 (= x130 x125)) (x155 (= x74 x20)) (x30 (= x12 x3)) (x139 (= x22 x132)) (x101 (= x74 x21)) (x69 (= x3 x131)) (x123 (= x125 x12)) (x80 (= x130 x74)) (x53 (= x84 x3)) (x120 (= x132 x131)) (x93 (= x158 x20)) (x52 (= x74 x72)) (x13 (= x125 x45)) (x152 (= x158 x84)) (x115 (= x107 x132)) (x1 (= x132 x21)) (x54 (= x65 x74)) (x2 (= x65 x3)) (x17 (= x5 x158)) (x89 (= x158 x110)) (x25 (= x135 x3)) (x28 (= x158 x22)) (x153 (= x125 x5)) (x44 (= x128 x132)) (x31 (= x72 x125)) (x121 (= x125 x98)) (x142 (= x125 x61)) (x23 (= x3 x98)) (x32 (= x86 x125)) (x62 (= x72 x132)) (x109 (= x137 x158)) (x59 (= x158 x46)) (x100 (= x3 x72)) (x10 (= x74 x135)) (x75 (= x158 x135)) (x26 (= x61 x3)) (x76 (= x128 x158)) (x92 (= x118 x132)) (x88 (= x3 x20)) (x15 (= x46 x3)) (x77 (= x110 x74)) (x119 (= x132 x133)) (x136 (= x132 x20)) (x104 (= x73 x158)) (x50 (= x65 x125)) (x112 (= x133 x3)) (x42 (= x46 x132)) (x126 (= x125 x128)) (x55 (= x86 x3)) (x9 (= x5 x3)) (x97 (= x132 x137)) (x68 (= x132 x84)) (x79 (= x128 x74)) (x38 (= x133 x158)) (x157 (= x12 x74)) (x35 (= x21 x125)) (x83 (= x137 x125)) (x140 (= x74 x137)) (x90 (= x74 x133)) (x49 (= x125 x7)) (x36 (= x125 x20)) (x156 (= x130 x3)) (x143 (= x98 x158)) (x8 (= x158 x86)) (x154 (= x110 x125)) (x85 (= x158 x21)) (x144 (= x125 x22)) (x57 (= x158 x45)) (x14 (= x74 x73)) (x138 (= x3 x73)) (x145 (= x147 x132)) (x16 (= x110 x132)) (x151 (= x86 x132)) (x39 (= x74 x7)) (x71 (= x74 x118)) (x117 (= x86 x74)) (x24 (= x158 x118)) (x18 (= x73 x132)) (x146 (= x3 x137)) (x64 (= x131 x74)) (x63 (= x158 x7)) (x129 (= x65 x132)) (x149 (= x61 x132)) (x105 (= x107 x74)) (x33 (= x125 x84)) (x159 (= x107 x158))) (and (and (and (and (or (or (or (or (and (not x76) x23) (or (or (and (not x126) x112) (and (not x43) x58)) (and (not x79) x26))) (and (not x44) x55)) (or (or (or (or (or (and x2 (not x35)) (and x9 (not x41))) (and (not x101) x53)) (and (not x85) x69)) (and (not x1) x156)) (or (or (or (or (and (not x14) x34) (or (and x96 (not x138)) (and x30 (not x106)))) (and (not x104) x146)) (and (not x18) x15)) (or (and x19 (not x16)) (or (and (not x89) x43) (or (or (and (not x154) x138) (and (not x67) x67)) (and (not x77) x41))))))) (or (and x88 (not x78)) (or (and (not x63) x113) (or (and (not x39) x100) (or (and x25 (not x49)) (and (not x19) x56)))))) (or (or (or (and x32 (not x97)) (or (and x121 (not x109)) (or (or (and (not x146) x48) (and (not x83) x127)) (and (not x140) x142)))) (or (or (or (or (and x126 (not x57)) (or (or (and x106 (not x13)) (and x154 (not x96))) (and x35 (not x134)))) (and (not x82) x49)) (or (and (not x148) x4) (or (or (and (not x157) x29) (or (and x13 (not x30)) (and (not x123) x123))) (and x83 (not x87))))) (or (and (not x145) x11) (or (and x141 (not x6)) (or (or (and x153 (not x34)) (and (not x29) x50)) (and x33 (not x27))))))) (or (or (or (or (and x102 (not x15)) (and x70 (not x4))) (and (not x150) x31)) (and (not x59) x144)) (and x36 (not x42))))) (or (or (and x155 (not x108)) (or (or (and (not x80) x52) (or (and x71 (not x156)) (and (not x11) x10))) (and (not x99) x91))) (or (or (or (and x40 (not x95)) (or (or (and (not x141) x90) (and (not x69) x105)) (and (not x64) x51))) (and (not x120) x117)) (or (or (or (or (or (and x66 (not x53)) (and x54 (not x33))) (and x124 (not x124))) (and x64 (not x152))) (and x80 (not x68))) (or (or (or (and (not x60) x140) (or (and (not x54) x27) (or (and x157 (not x50)) (and (not x2) x134)))) (and x150 (not x129))) (or (and x39 (not x111)) (or (and (not x17) x79) (or (and x101 (not x66)) (or (and x14 (not x153)) (and (not x9) x77)))))))))) (or (or (or (and (not x81) x8) (or (or (and (not x40) x114) (or (and x159 (not x23)) (and (not x121) x38))) (and x143 (not x143)))) (or (or (or (or (or (or (and x104 (not x48)) (and x89 (not x58))) (and (not x105) x85)) (and (not x159) x76)) (and x63 (not x115))) (or (and (not x119) x59) (or (and (not x38) x109) (or (and x6 (not x90)) (or (and (not x112) x57) (and x87 (not x127))))))) (or (or (or (and x152 (not x51)) (or (and x60 (not x142)) (and x17 (not x26)))) (and (not x114) x95)) (and (not x149) x99)))) (or (or (and (not x8) x28) (or (and x122 (not x117)) (or (and x24 (not x55)) (and x75 (not x32))))) (and (not x151) x93)))) (or (or (or (and x139 (not x93)) (or (and (not x155) x62) (or (and x94 (not x36)) (and x92 (not x88))))) (and (not x136) x136)) (or (or (or (and x81 (not x28)) (or (and x149 (not x91)) (or (and x119 (not x144)) (and (not x113) x115)))) (and x151 (not x139))) (or (or (or (and x42 (not x94)) (or (or (and x145 (not x10)) (or (and (not x25) x82) (and x148 (not x70)))) (and (not x75) x97))) (or (or (and x44 (not x24)) (or (and x1 (not x71)) (or (and x18 (not x102)) (and (not x56) x16)))) (and (not x92) x78))) (or (or (or (or (and (not x100) x111) (and (not x31) x129)) (and (not x52) x68)) (and (not x122) x120)) (and x108 (not x62))))))))))
(assert (not (and (= x125 (x116 x132 x132)) (and (and (= x158 (x116 x132 x74)) (and (= x132 (x116 x132 x3)) (and (= x74 (x116 x132 x125)) (and (= x132 (x116 x158 x132)) (and (= x125 (x116 x158 x158)) (and (and (= (x116 x158 x3) x3) (and (= x158 (x116 x158 x125)) (and (= x74 (x116 x74 x132)) (and (and (= x125 (x116 x74 x74)) (and (= x158 (x116 x74 x3)) (and (and (and (= (x116 x3 x158) x74) (and (and (= (x116 x3 x3) x125) (and (and (and (and (and (= x125 (x116 x125 x125)) (= (x116 x125 x3) x74)) (= x132 (x116 x125 x74))) (= (x116 x125 x158) x158)) (= x3 (x116 x125 x132))) (= (x116 x3 x125) x132))) (= (x116 x3 x74) x3))) (= x158 (x116 x3 x132))) (= (x116 x74 x125) x3)))) (= x132 (x116 x74 x158)))))) (= (x116 x158 x74) x74))))))) (= (x116 x132 x158) x3)))))
(assert (let ((x106 (x116 x74 x3)) (x138 (x116 x158 x74)) (x137 (x116 x3 x74)) (x15 (x116 x158 x3)) (x110 (x116 x158 x132)) (x29 (x116 x125 x132)) (x46 (x116 x3 x132)) (x96 (x116 x74 x74)) (x67 (x116 x132 x125)) (x30 (x116 x74 x125)) (x45 (x116 x125 x158)) (x73 (x116 x74 x158)) (x154 (x116 x158 x158)) (x21 (x116 x132 x3)) (x146 (x116 x158 x125)) (x7 (x116 x132 x158)) (x34 (x116 x74 x132)) (x123 (x116 x125 x125)) (x147 (x116 x3 x125)) (x4 (x116 x3 x158)) (x128 (x116 x132 x74)) (x13 (x116 x125 x74)) (x83 (x116 x3 x3)) (x12 (x116 x125 x3)) (x65 (x116 x132 x132))) (and (and (and (and (and (and (and (and (or (or (or (= x123 x74) (or (= x123 x3) (= x123 x125))) (= x158 x123)) (= x123 x132)) (or (= x12 x132) (or (= x158 x12) (or (= x12 x74) (or (= x12 x125) (= x3 x12)))))) (or (or (or (= x13 x74) (or (= x13 x3) (= x125 x13))) (= x158 x13)) (= x132 x13))) (or (or (or (= x74 x45) (or (= x45 x125) (= x45 x3))) (= x45 x158)) (= x45 x132))) (or (= x29 x132) (or (or (= x74 x29) (or (= x3 x29) (= x125 x29))) (= x29 x158)))) (and (or (= x46 x132) (or (= x158 x46) (or (or (= x46 x3) (= x46 x125)) (= x74 x46)))) (and (and (or (or (= x158 x137) (or (= x74 x137) (or (= x137 x3) (= x125 x137)))) (= x132 x137)) (and (or (= x132 x83) (or (= x158 x83) (or (= x74 x83) (or (= x83 x125) (= x83 x3))))) (or (= x147 x132) (or (= x147 x158) (or (= x147 x74) (or (= x147 x125) (= x3 x147))))))) (or (or (= x158 x4) (or (= x74 x4) (or (= x3 x4) (= x125 x4)))) (= x4 x132))))) (and (or (or (or (= x74 x34) (or (= x125 x34) (= x34 x3))) (= x34 x158)) (= x132 x34)) (and (or (= x73 x132) (or (= x158 x73) (or (= x73 x74) (or (= x3 x73) (= x125 x73))))) (and (or (or (= x158 x96) (or (or (= x96 x3) (= x125 x96)) (= x96 x74))) (= x96 x132)) (and (or (or (or (or (= x106 x3) (= x106 x125)) (= x74 x106)) (= x106 x158)) (= x132 x106)) (or (= x132 x30) (or (or (= x30 x74) (or (= x3 x30) (= x30 x125))) (= x158 x30)))))))) (and (and (and (and (or (or (= x158 x15) (or (= x74 x15) (or (= x15 x125) (= x3 x15)))) (= x15 x132)) (or (or (= x158 x146) (or (= x146 x74) (or (= x146 x125) (= x146 x3)))) (= x132 x146))) (or (= x138 x132) (or (= x138 x158) (or (or (= x138 x3) (= x125 x138)) (= x74 x138))))) (or (= x154 x132) (or (or (or (= x154 x3) (= x154 x125)) (= x74 x154)) (= x154 x158)))) (or (= x110 x132) (or (or (= x74 x110) (or (= x110 x125) (= x3 x110))) (= x158 x110))))) (and (and (and (or (or (or (= x74 x128) (or (= x3 x128) (= x125 x128))) (= x158 x128)) (= x132 x128)) (and (or (or (= x158 x67) (or (= x67 x74) (or (= x67 x125) (= x67 x3)))) (= x132 x67)) (or (or (= x158 x21) (or (or (= x21 x125) (= x3 x21)) (= x74 x21))) (= x132 x21)))) (or (= x7 x132) (or (= x158 x7) (or (= x7 x74) (or (= x3 x7) (= x125 x7)))))) (or (= x65 x132) (or (or (or (= x3 x65) (= x65 x125)) (= x65 x74)) (= x158 x65)))))))
(assert (or (and (and (and (and (not (= x3 (x116 x132 (x116 x132 x3)))) (not (= x125 (x116 x132 (x116 x132 x125))))) (not (= (x116 x132 (x116 x132 x74)) x74))) (not (= (x116 x132 (x116 x132 x158)) x158))) (not (= x132 (x116 x132 (x116 x132 x132))))) (or (and (not (= (x116 x158 (x116 x158 x132)) x132)) (and (and (not (= x74 (x116 x158 (x116 x158 x74)))) (and (not (= (x116 x158 (x116 x158 x125)) x125)) (not (= (x116 x158 (x116 x158 x3)) x3)))) (not (= (x116 x158 (x116 x158 x158)) x158)))) (or (and (and (and (and (not (= x3 (x116 x74 (x116 x74 x3)))) (not (= (x116 x74 (x116 x74 x125)) x125))) (not (= x74 (x116 x74 (x116 x74 x74))))) (not (= (x116 x74 (x116 x74 x158)) x158))) (not (= x132 (x116 x74 (x116 x74 x132))))) (or (and (and (and (and (not (= x125 (x116 x3 (x116 x3 x125)))) (not (= (x116 x3 (x116 x3 x3)) x3))) (not (= (x116 x3 (x116 x3 x74)) x74))) (not (= x158 (x116 x3 (x116 x3 x158))))) (not (= x132 (x116 x3 (x116 x3 x132))))) (and (and (not (= (x116 x125 (x116 x125 x158)) x158)) (and (and (not (= (x116 x125 (x116 x125 x125)) x125)) (not (= x3 (x116 x125 (x116 x125 x3))))) (not (= x74 (x116 x125 (x116 x125 x74)))))) (not (= (x116 x125 (x116 x125 x132)) x132))))))))
(assert (let ((x123 (= (x116 x125 x125) x125)) (x137 (= x74 (x116 x74 x74))) (x46 (= (x116 x132 x132) x132)) (x4 (= x158 (x116 x158 x158))) (x13 (= x3 (x116 x3 x3)))) (let ((x29 (not x137)) (x147 (not x4)) (x12 (not x123)) (x45 (not x13)) (x83 (not x46))) (or (or (and x46 x83) (or (or (and (= (x116 x132 x74) x132) x29) (or (and (= (x116 x132 x125) x132) x12) (and x45 (= (x116 x132 x3) x132)))) (and (= (x116 x132 x158) x132) x147))) (or (or (or (or (or (and x45 (= (x116 x158 x3) x158)) (and (= (x116 x158 x125) x158) x12)) (and x29 (= x158 (x116 x158 x74)))) (and x4 x147)) (and (= (x116 x158 x132) x158) x83)) (or (or (or (or (or (and x29 (= x125 (x116 x125 x74))) (or (and x123 x12) (and x45 (= (x116 x125 x3) x125)))) (and x147 (= (x116 x125 x158) x125))) (and x83 (= (x116 x125 x132) x125))) (or (or (or (or (and x45 x13) (and (= x3 (x116 x3 x125)) x12)) (and x29 (= x3 (x116 x3 x74)))) (and (= x3 (x116 x3 x158)) x147)) (and (= (x116 x3 x132) x3) x83))) (or (and (= x74 (x116 x74 x132)) x83) (or (and x147 (= x74 (x116 x74 x158))) (or (or (and x45 (= x74 (x116 x74 x3))) (and x12 (= x74 (x116 x74 x125)))) (and x137 x29))))))))))
(assert (or (= (x116 x132 x132) x132) (or (= (x116 x158 x158) x158) (or (= (x116 x74 x74) x74) (or (= x3 (x116 x3 x3)) (= (x116 x125 x125) x125))))))
(assert (let ((x4 (x116 x158 x3)) (x147 (x116 x125 x3)) (x67 (x116 x125 x132)) (x110 (x116 x132 x158)) (x106 (x116 x3 x74)) (x128 (x116 x74 x132)) (x15 (x116 x3 x158)) (x12 (x116 x3 x125)) (x137 (x116 x74 x3)) (x30 (x116 x125 x74)) (x123 (x116 x125 x125)) (x65 (x116 x132 x132)) (x146 (x116 x125 x158)) (x138 (x116 x74 x158)) (x21 (x116 x3 x132)) (x46 (x116 x132 x3)) (x45 (x116 x158 x125)) (x13 (x116 x74 x125)) (x83 (x116 x3 x3)) (x7 (x116 x158 x132)) (x96 (x116 x74 x74)) (x73 (x116 x158 x74)) (x34 (x116 x132 x74)) (x154 (x116 x158 x158)) (x29 (x116 x132 x125))) (and (and (and (not (= x7 x65)) (and (and (and (and (and (and (not (= x65 x67)) (and (not (= x67 x7)) (and (not (= x67 x128)) (not (= x67 x21))))) (not (= x128 x21))) (not (= x7 x21))) (not (= x65 x21))) (not (= x7 x128))) (not (= x128 x65)))) (and (and (and (not (= x110 x138)) (and (and (and (and (and (and (not (= x154 x146)) (and (not (= x138 x146)) (not (= x146 x15)))) (not (= x146 x110))) (not (= x15 x138))) (not (= x154 x15))) (not (= x15 x110))) (not (= x154 x138)))) (not (= x110 x154))) (and (and (and (and (and (and (and (and (and (and (and (not (= x147 x83)) (not (= x137 x147))) (not (= x4 x147))) (not (= x147 x46))) (not (= x137 x83))) (not (= x4 x83))) (not (= x46 x83))) (not (= x137 x4))) (not (= x137 x46))) (not (= x4 x46))) (and (and (not (= x13 x29)) (and (not (= x45 x13)) (and (and (and (and (and (not (= x123 x45)) (and (not (= x12 x123)) (not (= x13 x123)))) (not (= x123 x29))) (not (= x13 x12))) (not (= x12 x45))) (not (= x29 x12))))) (not (= x45 x29)))) (and (and (and (and (and (not (= x73 x106)) (and (and (and (not (= x30 x73)) (and (not (= x106 x30)) (not (= x30 x96)))) (not (= x34 x30))) (not (= x96 x106)))) (not (= x106 x34))) (not (= x96 x73))) (not (= x96 x34))) (not (= x73 x34)))))) (and (and (not (= x65 x110)) (and (not (= x65 x34)) (and (not (= x34 x110)) (and (not (= x65 x46)) (and (not (= x46 x110)) (and (not (= x34 x46)) (and (and (not (= x29 x110)) (and (not (= x34 x29)) (not (= x29 x46)))) (not (= x29 x65))))))))) (and (and (and (and (not (= x128 x96)) (and (and (not (= x137 x128)) (and (and (not (= x96 x137)) (and (and (not (= x138 x13)) (and (not (= x137 x13)) (not (= x96 x13)))) (not (= x13 x128)))) (not (= x137 x138)))) (not (= x138 x96)))) (not (= x128 x138))) (and (and (and (not (= x67 x30)) (and (and (and (and (and (not (= x67 x123)) (and (and (not (= x123 x30)) (not (= x123 x147))) (not (= x123 x146)))) (not (= x30 x147))) (not (= x146 x147))) (not (= x67 x147))) (not (= x30 x146)))) (not (= x67 x146))) (and (and (and (not (= x106 x15)) (and (not (= x21 x83)) (and (and (not (= x106 x83)) (and (not (= x12 x21)) (and (not (= x15 x12)) (and (not (= x83 x12)) (not (= x12 x106)))))) (not (= x83 x15))))) (not (= x106 x21))) (not (= x15 x21))))) (and (not (= x7 x154)) (and (not (= x7 x73)) (and (and (and (and (and (not (= x7 x45)) (and (not (= x45 x154)) (and (not (= x45 x4)) (not (= x45 x73))))) (not (= x73 x4))) (not (= x154 x4))) (not (= x7 x4))) (not (= x73 x154))))))))))
(assert (let ((x86 (x116 x3 x3)) (x72 (x116 x158 x3)) (x14 (x116 x158 x74)) (x41 (x116 x125 x3)) (x35 (x116 x125 x125)) (x141 (x116 x132 x158)) (x130 (x116 x74 x125)) (x19 (x116 x3 x158)) (x150 (x116 x74 x158)) (x43 (x116 x132 x125)) (x153 (x116 x74 x132)) (x22 (x116 x3 x132)) (x77 (x116 x132 x74)) (x27 (x116 x74 x74)) (x112 (x116 x132 x132)) (x124 (x116 x158 x132)) (x131 (x116 x125 x74)) (x49 (x116 x3 x74)) (x66 (x116 x158 x158)) (x118 (x116 x74 x3)) (x133 (x116 x125 x158)) (x84 (x116 x3 x125)) (x20 (x116 x132 x3)) (x107 (x116 x125 x132)) (x126 (x116 x158 x125))) (let ((x29 (not (= x125 x130))) (x96 (not (= x125 x19))) (x94 (not (= x43 x132))) (x2 (not (= x3 x49))) (x61 (not (= x84 x3))) (x121 (not (= x74 x77))) (x12 (not (= x84 x125))) (x128 (not (= x125 x141))) (x73 (not (= x14 x125))) (x10 (not (= x133 x158))) (x135 (not (= x86 x3))) (x40 (not (= x74 x112))) (x44 (not (= x77 x158))) (x64 (not (= x3 x107))) (x67 (not (= x77 x125))) (x33 (not (= x150 x3))) (x9 (not (= x3 x126))) (x21 (not (= x153 x125))) (x85 (not (= x49 x74))) (x5 (not (= x3 x35))) (x95 (not (= x74 x107))) (x17 (not (= x74 x14))) (x148 (not (= x131 x158))) (x117 (not (= x86 x158))) (x139 (not (= x141 x132))) (x106 (not (= x72 x125))) (x53 (not (= x3 x66))) (x48 (not (= x130 x74))) (x105 (not (= x27 x74))) (x42 (not (= x14 x158))) (x111 (not (= x35 x132))) (x137 (not (= x49 x125))) (x123 (not (= x35 x125))) (x15 (not (= x125 x43))) (x60 (not (= x72 x74))) (x38 (not (= x74 x22))) (x159 (not (= x74 x153))) (x54 (not (= x3 x14))) (x90 (not (= x35 x74))) (x52 (not (= x86 x132))) (x109 (not (= x84 x74))) (x143 (not (= x35 x158))) (x30 (not (= x125 x133))) (x63 (not (= x133 x74))) (x1 (not (= x158 x20))) (x115 (not (= x126 x132))) (x4 (not (= x27 x125))) (x71 (not (= x158 x22))) (x11 (not (= x20 x3))) (x6 (not (= x112 x3))) (x59 (not (= x74 x41))) (x129 (not (= x124 x158))) (x36 (not (= x107 x132))) (x82 (not (= x49 x158))) (x65 (not (= x125 x112))) (x114 (not (= x124 x74))) (x122 (not (= x131 x132))) (x152 (not (= x74 x66))) (x79 (not (= x72 x3))) (x58 (not (= x74 x118))) (x69 (not (= x3 x43))) (x39 (not (= x3 x19))) (x70 (not (= x158 x118))) (x100 (not (= x132 x84))) (x51 (not (= x74 x43))) (x134 (not (= x118 x3))) (x154 (not (= x125 x20))) (x113 (not (= x133 x132))) (x146 (not (= x125 x66))) (x104 (not (= x74 x86))) (x88 (not (= x132 x22))) (x25 (not (= x158 x27))) (x119 (not (= x132 x49))) (x108 (not (= x118 x132))) (x149 (not (= x72 x132))) (x136 (not (= x132 x112))) (x68 (not (= x132 x41))) (x31 (not (= x158 x112))) (x147 (not (= x131 x125))) (x78 (not (= x158 x141))) (x145 (not (= x126 x158))) (x18 (not (= x158 x150))) (x92 (not (= x20 x132))) (x23 (not (= x141 x74))) (x120 (not (= x132 x130))) (x16 (not (= x43 x158))) (x87 (not (= x3 x153))) (x75 (not (= x19 x158))) (x155 (not (= x153 x132))) (x140 (not (= x3 x27))) (x55 (not (= x158 x41))) (x156 (not (= x3 x22))) (x138 (not (= x125 x107))) (x89 (not (= x131 x74))) (x99 (not (= x74 x20))) (x50 (not (= x131 x3))) (x101 (not (= x133 x3))) (x102 (not (= x66 x158))) (x62 (not (= x132 x77))) (x34 (not (= x150 x125))) (x127 (not (= x141 x3))) (x26 (not (= x74 x150))) (x157 (not (= x130 x3))) (x76 (not (= x74 x126))) (x81 (not (= x14 x132))) (x56 (not (= x107 x158))) (x46 (not (= x125 x126))) (x7 (not (= x125 x124))) (x97 (not (= x158 x72))) (x144 (not (= x132 x27))) (x80 (not (= x3 x77))) (x91 (not (= x19 x132))) (x110 (not (= x125 x22))) (x98 (not (= x3 x41))) (x142 (not (= x19 x74))) (x13 (not (= x125 x41))) (x24 (not (= x153 x158))) (x57 (not (= x3 x124))) (x83 (not (= x125 x118))) (x45 (not (= x125 x86))) (x151 (not (= x132 x66))) (x93 (not (= x124 x132))) (x8 (not (= x158 x130))) (x28 (not (= x150 x132))) (x32 (not (= x158 x84)))) (or (and (and (and (or x139 x93) (and (or x62 x155) (and (or x94 x36) (or x88 x92)))) (or x136 x136)) (and (and (and (and (or x28 x81) (and (and (or x120 x122) (or x108 x119)) (or x144 x144))) (or x62 x155)) (and (and (or x94 x36) (and (and (and (or x111 x111) (or x68 x100)) (or x120 x122)) (or x115 x113))) (and (or x88 x92) (and (or x91 x149) (and (and (or x100 x68) (or x52 x52)) (or x119 x108)))))) (and (or x139 x93) (and (or x151 x151) (and (and (or x91 x149) (or x113 x115)) (or x81 x28)))))) (or (or (or (and (and (and (or x7 x128) (and (and (or x73 x34) (and (or x106 x96) (or x30 x46))) (or x146 x146))) (and (and (and (or x138 x15) (and (and (and (or x123 x123) (or x12 x13)) (or x29 x147)) (or x46 x30))) (and (and (and (or x83 x137) (and (or x45 x45) (or x13 x12))) (or x96 x106)) (or x154 x110))) (and (and (or x73 x34) (and (and (or x83 x137) (or x29 x147)) (or x4 x4))) (or x21 x67)))) (and (or x65 x65) (and (and (or x21 x67) (and (or x15 x138) (or x154 x110))) (or x7 x128)))) (and (and (and (and (and (and (or x9 x101) (and (and (or x5 x5) (or x61 x98)) (or x50 x157))) (or x64 x69)) (and (and (and (and (or x135 x135) (or x98 x61)) (or x134 x2)) (or x39 x79)) (or x11 x156))) (and (or x80 x87) (and (and (or x140 x140) (and (or x157 x50) (or x134 x2))) (or x54 x33)))) (and (or x57 x127) (and (and (or x54 x33) (and (or x39 x79) (or x9 x101))) (or x53 x53)))) (and (or x6 x6) (and (and (or x80 x87) (and (or x11 x156) (or x69 x64))) (or x57 x127))))) (and (and (and (or x23 x114) (and (or x159 x121) (and (or x95 x51) (or x99 x38)))) (or x40 x40)) (and (and (and (or x159 x121) (and (and (and (or x85 x58) (or x48 x89)) (or x105 x105)) (or x26 x17))) (and (and (or x51 x95) (and (and (or x89 x48) (and (or x109 x59) (or x90 x90))) (or x63 x76))) (and (or x38 x99) (and (or x142 x60) (and (and (or x104 x104) (or x109 x59)) (or x85 x58)))))) (and (or x23 x114) (and (and (and (or x63 x76) (or x142 x60)) (or x17 x26)) (or x152 x152)))))) (and (and (and (or x78 x129) (and (or x102 x102) (and (or x18 x42) (and (or x75 x97) (or x10 x145))))) (and (and (and (and (or x97 x75) (and (and (or x32 x55) (or x117 x117)) (or x82 x70))) (or x71 x1)) (and (and (or x145 x10) (and (and (or x55 x32) (or x143 x143)) (or x8 x148))) (or x16 x56))) (and (or x44 x24) (and (or x42 x18) (and (or x25 x25) (and (or x148 x8) (or x70 x82))))))) (and (and (and (or x24 x44) (and (or x71 x1) (or x56 x16))) (or x129 x78)) (or x31 x31))))))))
(assert (let ((x29 (x116 x132 x132)) (x123 (x116 x125 x125)) (x13 (x116 x74 x74)) (x45 (x116 x158 x158)) (x12 (x116 x3 x3))) (and (= (x116 x29 x29) x29) (and (and (= x13 (x116 x13 x13)) (and (= x123 (x116 x123 x123)) (= x12 (x116 x12 x12)))) (= (x116 x45 x45) x45)))))
(assert (or (or (or (or (and (= (x116 (x116 x132 x3) x132) x3) (and (and (= (x116 (x116 x74 x3) x74) x3) (and (= (x116 (x116 x125 x3) x125) x3) (= x3 (x116 (x116 x3 x3) x3)))) (= (x116 (x116 x158 x3) x158) x3))) (and (and (and (= x125 (x116 (x116 x74 x125) x74)) (and (= x125 (x116 (x116 x125 x125) x125)) (= (x116 (x116 x3 x125) x3) x125))) (= (x116 (x116 x158 x125) x158) x125)) (= (x116 (x116 x132 x125) x132) x125))) (and (and (= (x116 (x116 x158 x74) x158) x74) (and (and (= (x116 (x116 x3 x74) x3) x74) (= x74 (x116 (x116 x125 x74) x125))) (= x74 (x116 (x116 x74 x74) x74)))) (= (x116 (x116 x132 x74) x132) x74))) (and (= (x116 (x116 x132 x158) x132) x158) (and (= x158 (x116 (x116 x158 x158) x158)) (and (and (= x158 (x116 (x116 x3 x158) x3)) (= x158 (x116 (x116 x125 x158) x125))) (= (x116 (x116 x74 x158) x74) x158))))) (and (and (and (= (x116 (x116 x74 x132) x74) x132) (and (= (x116 (x116 x3 x132) x3) x132) (= (x116 (x116 x125 x132) x125) x132))) (= x132 (x116 (x116 x158 x132) x158))) (= x132 (x116 (x116 x132 x132) x132)))))
(assert (or (and (and (and (and (not (= (x116 x3 x132) x3)) (not (= (x116 x125 x132) x125))) (not (= x74 (x116 x74 x132)))) (not (= (x116 x158 x132) x158))) (not (= x132 (x116 x132 x132)))) (or (or (or (and (not (= x132 (x116 x132 x3))) (and (not (= x158 (x116 x158 x3))) (and (and (not (= (x116 x125 x3) x125)) (not (= x3 (x116 x3 x3)))) (not (= (x116 x74 x3) x74))))) (and (not (= x132 (x116 x132 x125))) (and (not (= (x116 x158 x125) x158)) (and (not (= (x116 x74 x125) x74)) (and (not (= (x116 x125 x125) x125)) (not (= (x116 x3 x125) x3))))))) (and (and (not (= x158 (x116 x158 x74))) (and (and (not (= (x116 x3 x74) x3)) (not (= (x116 x125 x74) x125))) (not (= x74 (x116 x74 x74))))) (not (= (x116 x132 x74) x132)))) (and (and (and (not (= (x116 x74 x158) x74)) (and (not (= (x116 x3 x158) x3)) (not (= x125 (x116 x125 x158))))) (not (= (x116 x158 x158) x158))) (not (= (x116 x132 x158) x132))))))
(assert (and (and (and (and (or (or (= (x116 (x116 x158 x125) x125) x158) (or (= (x116 (x116 x74 x125) x125) x74) (or (= x125 (x116 (x116 x125 x125) x125)) (= (x116 (x116 x3 x125) x125) x3)))) (= x132 (x116 (x116 x132 x125) x125))) (or (or (or (= x74 (x116 (x116 x74 x3) x3)) (or (= (x116 (x116 x3 x3) x3) x3) (= x125 (x116 (x116 x125 x3) x3)))) (= (x116 (x116 x158 x3) x3) x158)) (= (x116 (x116 x132 x3) x3) x132))) (or (or (= x158 (x116 (x116 x158 x74) x74)) (or (= (x116 (x116 x74 x74) x74) x74) (or (= x3 (x116 (x116 x3 x74) x74)) (= x125 (x116 (x116 x125 x74) x74))))) (= (x116 (x116 x132 x74) x74) x132))) (or (= (x116 (x116 x132 x158) x158) x132) (or (or (= (x116 (x116 x74 x158) x158) x74) (or (= (x116 (x116 x3 x158) x158) x3) (= x125 (x116 (x116 x125 x158) x158)))) (= x158 (x116 (x116 x158 x158) x158))))) (or (or (or (= (x116 (x116 x74 x132) x132) x74) (or (= x3 (x116 (x116 x3 x132) x132)) (= x125 (x116 (x116 x125 x132) x132)))) (= x158 (x116 (x116 x158 x132) x132))) (= (x116 (x116 x132 x132) x132) x132))))
(assert (not (and (= (x116 x132 x132) x125) (and (= (x116 x132 x158) x3) (and (= (x116 x132 x74) x158) (and (and (and (and (and (= x74 (x116 x158 x74)) (and (= x3 (x116 x158 x3)) (and (and (= (x116 x74 x132) x74) (and (and (and (and (= (x116 x74 x125) x3) (and (and (= (x116 x3 x158) x74) (and (and (and (= x132 (x116 x3 x125)) (and (and (and (and (= x74 (x116 x125 x3)) (= x125 (x116 x125 x125))) (= (x116 x125 x74) x132)) (= (x116 x125 x158) x158)) (= x3 (x116 x125 x132)))) (= x125 (x116 x3 x3))) (= x3 (x116 x3 x74)))) (= (x116 x3 x132) x158))) (= x158 (x116 x74 x3))) (= x125 (x116 x74 x74))) (= (x116 x74 x158) x132))) (= (x116 x158 x125) x158)))) (= (x116 x158 x158) x125)) (= x132 (x116 x158 x132))) (= (x116 x132 x125) x74)) (= x132 (x116 x132 x3))))))))
(assert (and (and (not (= x74 x132)) (and (not (= x158 x74)) (and (and (and (and (not (= x132 x125)) (and (and (not (= x125 x3)) (not (= x125 x74))) (not (= x158 x125)))) (not (= x3 x74))) (not (= x3 x158))) (not (= x132 x3))))) (not (= x132 x158))))
(assert (and (= x132 (x116 x3 x125)) (and (and (= (x116 x3 x3) x125) (= (x116 x125 x3) x74)) (= x158 (x116 x3 x132)))))
(assert (not (and (= x125 (x116 x132 x132)) (and (= x3 (x116 x132 x158)) (and (= x158 (x116 x132 x74)) (and (= (x116 x132 x3) x132) (and (= (x116 x132 x125) x74) (and (= (x116 x158 x132) x132) (and (= x125 (x116 x158 x158)) (and (= (x116 x158 x74) x74) (and (= x3 (x116 x158 x3)) (and (and (= (x116 x74 x132) x74) (and (= (x116 x74 x158) x132) (and (and (= x158 (x116 x74 x3)) (and (= (x116 x74 x125) x3) (and (and (and (and (and (= x132 (x116 x3 x125)) (and (and (= x158 (x116 x125 x158)) (and (= x132 (x116 x125 x74)) (and (= x125 (x116 x125 x125)) (= (x116 x125 x3) x74)))) (= (x116 x125 x132) x3))) (= (x116 x3 x3) x125)) (= (x116 x3 x74) x3)) (= (x116 x3 x158) x74)) (= x158 (x116 x3 x132))))) (= x125 (x116 x74 x74))))) (= (x116 x158 x125) x158)))))))))))))
(assert (or (and (and (and (= (x116 x132 (x116 x132 x74)) x74) (and (= x125 (x116 x132 (x116 x132 x125))) (= x3 (x116 x132 (x116 x132 x3))))) (= (x116 x132 (x116 x132 x158)) x158)) (= x132 (x116 x132 (x116 x132 x132)))) (or (and (= x132 (x116 x158 (x116 x158 x132))) (and (= x158 (x116 x158 (x116 x158 x158))) (and (= x74 (x116 x158 (x116 x158 x74))) (and (= x125 (x116 x158 (x116 x158 x125))) (= (x116 x158 (x116 x158 x3)) x3))))) (or (and (= (x116 x74 (x116 x74 x132)) x132) (and (and (= (x116 x74 (x116 x74 x74)) x74) (and (= (x116 x74 (x116 x74 x125)) x125) (= x3 (x116 x74 (x116 x74 x3))))) (= (x116 x74 (x116 x74 x158)) x158))) (or (and (= (x116 x125 (x116 x125 x132)) x132) (and (= x158 (x116 x125 (x116 x125 x158))) (and (and (= x3 (x116 x125 (x116 x125 x3))) (= (x116 x125 (x116 x125 x125)) x125)) (= (x116 x125 (x116 x125 x74)) x74)))) (and (= x132 (x116 x3 (x116 x3 x132))) (and (= (x116 x3 (x116 x3 x158)) x158) (and (= (x116 x3 (x116 x3 x74)) x74) (and (= (x116 x3 (x116 x3 x125)) x125) (= (x116 x3 (x116 x3 x3)) x3))))))))))
(assert (let ((x45 (x116 x158 x158)) (x29 (x116 x132 x132)) (x13 (x116 x74 x74)) (x12 (x116 x3 x3)) (x123 (x116 x125 x125))) (or (and (not (= x132 x29)) (and (not (= x45 x132)) (and (and (not (= x123 x132)) (not (= x132 x12))) (not (= x132 x13))))) (or (or (and (not (= x74 x29)) (and (and (and (not (= x74 x123)) (not (= x12 x74))) (not (= x74 x13))) (not (= x74 x45)))) (or (and (not (= x29 x3)) (and (and (not (= x13 x3)) (and (not (= x12 x3)) (not (= x3 x123)))) (not (= x45 x3)))) (and (and (and (not (= x125 x13)) (and (not (= x125 x123)) (not (= x12 x125)))) (not (= x45 x125))) (not (= x125 x29))))) (and (not (= x158 x29)) (and (not (= x45 x158)) (and (not (= x158 x13)) (and (not (= x123 x158)) (not (= x158 x12))))))))))
(assert (let ((x21 (x116 x3 x132)) (x5 (x116 x132 x3)) (x85 (x116 x132 x158)) (x56 (x116 x132 x132)) (x29 (x116 x125 x158)) (x147 (x116 x125 x132)) (x22 (x116 x74 x74)) (x4 (x116 x74 x125)) (x13 (x116 x125 x3)) (x110 (x116 x3 x74)) (x12 (x116 x125 x125)) (x67 (x116 x3 x158)) (x45 (x116 x125 x74)) (x46 (x116 x158 x125)) (x109 (x116 x158 x158)) (x59 (x116 x158 x132)) (x27 (x116 x158 x74)) (x140 (x116 x132 x74)) (x157 (x116 x74 x132)) (x137 (x116 x3 x125)) (x30 (x116 x132 x125)) (x35 (x116 x158 x3)) (x154 (x116 x3 x3)) (x20 (x116 x74 x158)) (x65 (x116 x74 x3))) (let ((x126 (= x158 x154)) (x55 (= x132 x20)) (x33 (= x158 x22)) (x43 (= x132 x13)) (x146 (= x13 x125)) (x94 (= x30 x132)) (x52 (= x21 x74)) (x49 (= x125 x110)) (x150 (= x4 x74)) (x11 (= x35 x125)) (x91 (= x21 x158)) (x78 (= x3 x56)) (x97 (= x125 x59)) (x120 (= x157 x74)) (x112 (= x46 x3)) (x54 (= x158 x110)) (x121 (= x158 x20)) (x115 (= x158 x140)) (x117 (= x132 x109)) (x122 (= x74 x59)) (x58 (= x3 x109)) (x2 (= x3 x22)) (x32 (= x132 x67)) (x81 (= x158 x157)) (x134 (= x110 x3)) (x89 (= x20 x3)) (x16 (= x3 x85)) (x71 (= x3 x21)) (x142 (= x67 x74)) (x7 (= x154 x3)) (x80 (= x29 x125)) (x10 (= x157 x125)) (x131 (= x74 x154)) (x38 (= x67 x158)) (x51 (= x35 x158)) (x149 (= x147 x158)) (x53 (= x65 x132)) (x156 (= x125 x27)) (x135 (= x45 x125)) (x102 (= x3 x140)) (x127 (= x20 x125)) (x24 (= x59 x3)) (x123 (= x125 x12)) (x18 (= x5 x3)) (x93 (= x59 x132)) (x1 (= x147 x3)) (x75 (= x125 x56)) (x98 (= x125 x4)) (x79 (= x158 x65)) (x36 (= x5 x132)) (x141 (= x110 x132)) (x44 (= x3 x157)) (x153 (= x74 x45)) (x69 (= x22 x132)) (x63 (= x74 x27)) (x26 (= x109 x74)) (x159 (= x158 x109)) (x34 (= x137 x125)) (x99 (= x158 x29)) (x17 (= x20 x74)) (x15 (= x154 x125)) (x70 (= x140 x125)) (x77 (= x110 x74)) (x42 (= x30 x3)) (x86 (= x65 x125)) (x84 (= x13 x74)) (x57 (= x125 x109)) (x76 (= x35 x74)) (x106 (= x12 x74)) (x155 (= x21 x132)) (x124 (= x45 x132)) (x151 (= x158 x56)) (x96 (= x158 x12)) (x60 (= x29 x74)) (x8 (= x125 x30)) (x152 (= x46 x158)) (x31 (= x74 x5)) (x82 (= x85 x125)) (x128 (= x3 x13)) (x87 (= x125 x67)) (x6 (= x35 x3)) (x95 (= x158 x27)) (x41 (= x74 x137)) (x105 (= x74 x46)) (x144 (= x5 x158)) (x40 (= x27 x132)) (x73 (= x132 x12)) (x148 (= x125 x5)) (x23 (= x132 x46)) (x100 (= x85 x74)) (x139 (= x132 x157)) (x119 (= x158 x30)) (x72 (= x3 x65)) (x68 (= x74 x147)) (x19 (= x4 x3)) (x118 (= x22 x125)) (x62 (= x147 x132)) (x50 (= x45 x3)) (x101 (= x4 x158)) (x83 (= x3 x12)) (x145 (= x21 x125)) (x39 (= x45 x158)) (x107 (= x132 x137)) (x25 (= x125 x147)) (x9 (= x22 x74)) (x114 (= x132 x35)) (x90 (= x3 x27)) (x104 (= x29 x3)) (x113 (= x85 x158)) (x136 (= x132 x56)) (x88 (= x132 x85)) (x108 (= x56 x74)) (x130 (= x158 x137)) (x129 (= x74 x30)) (x111 (= x74 x140)) (x28 (= x158 x59)) (x138 (= x3 x137)) (x14 (= x65 x74)) (x61 (= x154 x132)) (x92 (= x132 x140)) (x66 (= x4 x132)) (x64 (= x125 x46)) (x143 (= x29 x132)) (x48 (= x67 x3)) (x133 (= x13 x158))) (and (and (and (and (and (and (and (or (or (or x101 (or x130 x96)) x152) x119) (or (or (or x39 (or x133 x96)) x99) x149)) (and (and (or (or x60 (or (or x84 x106) x153)) x68) (or (or x105 (or (or x106 x41) x150)) x129)) (and (and (or x1 (or x104 (or (or x83 x128) x50))) (or (or (or (or x83 x138) x19) x112) x42)) (and (or (or x64 (or x98 (or x34 x123))) x8) (or (or x80 (or (or x146 x123) x135)) x25))))) (and (or (or (or x124 (or x73 x43)) x143) x62) (or (or x23 (or (or x107 x73) x66)) x94))) (and (and (or (or x32 (or x141 (or x61 x107))) x155) (or (or (or (or x43 x61) x53) x114) x36)) (and (and (and (or (or x76 (or (or x131 x84) x14)) x31) (or (or (or (or x131 x41) x77) x142) x52)) (and (and (or (or (or x86 (or x146 x15)) x11) x148) (or (or (or x49 (or x34 x15)) x87) x145)) (and (or x71 (or x48 (or x134 (or x7 x138)))) (or x18 (or (or x72 (or x7 x128)) x6))))) (and (or x91 (or x38 (or (or x130 x126) x54))) (or x144 (or (or (or x126 x133) x79) x51)))))) (and (and (or (or (or x69 (or x141 x124)) x40) x92) (or (or x55 (or (or x53 x66) x69)) x139)) (and (and (and (and (or (or x90 (or (or x50 x134) x2)) x102) (or (or (or x2 (or x19 x72)) x89) x44)) (and (or x70 (or (or (or x135 x49) x118) x156)) (or (or (or (or x86 x98) x118) x127) x10))) (and (or x120 (or (or (or x14 x150) x9) x17)) (or (or x63 (or (or x153 x77) x9)) x111))) (and (or (or (or (or x39 x54) x33) x95) x115) (or (or (or x33 (or x101 x79)) x121) x81))))) (and (and (or (or (or x40 (or x114 x23)) x117) x93) (or x88 (or x117 (or (or x143 x32) x55)))) (and (and (and (or x122 (or x26 (or x63 (or x76 x105)))) (or (or (or x17 (or x60 x142)) x26) x100)) (and (and (or x24 (or x58 (or (or x112 x6) x90))) (or (or x58 (or x89 (or x48 x104))) x16)) (and (or x97 (or x57 (or x156 (or x64 x11)))) (or x82 (or (or x127 (or x80 x87)) x57))))) (and (or (or (or x95 (or x51 x152)) x159) x28) (or x113 (or x159 (or x121 (or x99 x38)))))))) (and (and (or x136 (or (or (or x155 x62) x139) x93)) (or x136 (or x88 (or (or x94 x36) x92)))) (and (and (or (or (or (or x119 x144) x115) x113) x151) (or x151 (or x28 (or (or x149 x91) x81)))) (and (and (or x108 (or (or (or x52 x68) x120) x122)) (or (or (or (or x31 x129) x111) x100) x108)) (and (and (or x75 (or (or (or x25 x145) x10) x97)) (or x75 (or (or x70 (or x148 x8)) x82))) (and (or (or (or (or x71 x1) x44) x24) x78) (or (or x16 (or x102 (or x42 x18))) x78))))))))))
(assert (and (and (and (or (= x74 (x116 (x116 x132 x74) x132)) (or (= x74 (x116 (x116 x158 x74) x158)) (or (= x74 (x116 (x116 x74 x74) x74)) (or (= (x116 (x116 x125 x74) x125) x74) (= (x116 (x116 x3 x74) x3) x74))))) (and (or (or (= x125 (x116 (x116 x158 x125) x158)) (or (= x125 (x116 (x116 x74 x125) x74)) (or (= (x116 (x116 x3 x125) x3) x125) (= x125 (x116 (x116 x125 x125) x125))))) (= x125 (x116 (x116 x132 x125) x132))) (or (or (or (or (= x3 (x116 (x116 x3 x3) x3)) (= (x116 (x116 x125 x3) x125) x3)) (= x3 (x116 (x116 x74 x3) x74))) (= (x116 (x116 x158 x3) x158) x3)) (= x3 (x116 (x116 x132 x3) x132))))) (or (or (= (x116 (x116 x158 x158) x158) x158) (or (or (= x158 (x116 (x116 x3 x158) x3)) (= x158 (x116 (x116 x125 x158) x125))) (= x158 (x116 (x116 x74 x158) x74)))) (= (x116 (x116 x132 x158) x132) x158))) (or (= (x116 (x116 x132 x132) x132) x132) (or (or (= x132 (x116 (x116 x74 x132) x74)) (or (= (x116 (x116 x125 x132) x125) x132) (= x132 (x116 (x116 x3 x132) x3)))) (= x132 (x116 (x116 x158 x132) x158))))))
(check-sat)
(exit)
